
Gurobi 9.1.1 (mac64, gurobi_cl) logging started Fri Feb 19 16:49:17 2021

Academic license - for non-commercial use only - expires 2021-04-06
Using license file /Users/agnese/gurobi.lic
Set parameter LogFile to value gurobi.log

Gurobi Optimizer version 9.1.1 build v9.1.1rc0 (mac64)
Copyright (c) 2020, Gurobi Optimization, LLC

Read LP format model from file /Users/agnese/Documents/KTH-Work/GitHub_repositories/KTH-dESA/GLUCOSE/results/2Degree2060/gurobi/GLUCOSE_2Degree2060.lp
Reading time = 0.62 seconds
cost: 55289 rows, 45900 columns, 520298 nonzeros
Thread count: 2 physical cores, 4 logical processors, using up to 4 threads
Optimize a model with 55289 rows, 45900 columns and 520298 nonzeros
Model fingerprint: 0x055b5e47
Coefficient statistics:
  Matrix range     [2e-08, 6e+03]
  Objective range  [7e-08, 4e+11]
  Bounds range     [0e+00, 0e+00]
  RHS range        [1e-03, 1e+06]
Warning: Model contains large objective coefficients
         Consider reformulating model or setting NumericFocus parameter
         to avoid numerical issues.

Concurrent LP optimizer: dual simplex and barrier
Showing barrier log only...

Presolve removed 30095 rows and 27983 columns
Presolve time: 0.32s
Presolved: 25194 rows, 18039 columns, 350920 nonzeros

Ordering time: 1.77s

Barrier performed 0 iterations in 2.31 seconds
Barrier solve interrupted - model solved by another algorithm


Solved with dual simplex
Solved in 11148 iterations and 2.31 seconds
Infeasible or unbounded model

Unknown file type for file 'output.ils'


Gurobi 9.1.1 (mac64, gurobi_cl) logging started Fri Feb 19 16:50:02 2021

Academic license - for non-commercial use only - expires 2021-04-06
Using license file /Users/agnese/gurobi.lic
Set parameter LogFile to value gurobi.log

Gurobi Optimizer version 9.1.1 build v9.1.1rc0 (mac64)
Copyright (c) 2020, Gurobi Optimization, LLC

Read LP format model from file /Users/agnese/Documents/KTH-Work/GitHub_repositories/KTH-dESA/GLUCOSE/results/2Degree2060/gurobi/GLUCOSE_2Degree2060.lp
Reading time = 0.54 seconds
cost: 55289 rows, 45900 columns, 520298 nonzeros
Thread count: 2 physical cores, 4 logical processors, using up to 4 threads
Optimize a model with 55289 rows, 45900 columns and 520298 nonzeros
Model fingerprint: 0x055b5e47
Coefficient statistics:
  Matrix range     [2e-08, 6e+03]
  Objective range  [7e-08, 4e+11]
  Bounds range     [0e+00, 0e+00]
  RHS range        [1e-03, 1e+06]
Warning: Model contains large objective coefficients
         Consider reformulating model or setting NumericFocus parameter
         to avoid numerical issues.

Concurrent LP optimizer: dual simplex and barrier
Showing barrier log only...

Presolve removed 30095 rows and 27983 columns
Presolve time: 0.26s
Presolved: 25194 rows, 18039 columns, 350920 nonzeros

Ordering time: 1.69s

Barrier performed 0 iterations in 2.13 seconds
Barrier solve interrupted - model solved by another algorithm


Solved with dual simplex
Solved in 11148 iterations and 2.13 seconds
Infeasible or unbounded model
Iteration    Objective       Primal Inf.    Dual Inf.      Time
       0   -4.5900000e+33   6.086233e+33   4.590000e+03      0s

IIS computed: 63 constraints and 108 bounds
IIS runtime: 3.61 seconds

Wrote result file 'output.ilp'

